80 8
44 25
92 89
38 22
39 50
18 5
17 74
9 71
84 22
46 9
14 40
5 70
22 60
65 15
14 85
24 88
54 76
3 5
43 3
3 71
96 32
65 56
80 51
37 50
95 21
12 12
58 29
38 2
54 99
73 98
96 66
31 47
29 34
63 72
43 37
33 79
86 59
80 74
94 34
94 11
47 66
96 37
8 51
100 60
86 59
93 32
9 73
87 86
54 28
55 1
42 72
30 35
88 38
52 40
54 55
56 96
11 39
59 34
11 65
39 3
42 24
16 14
35 19
77 76
70 76
30 23
50 73
43 62
16 52
100 21
31 77
69 37
68 72
89 36
7 90
16 14
100 43
78 57
35 52
3 53
21 59
404 473
508 609
349 422
303 373
348 414
514 611
365 413
347 416
